27894
1 0 1 0 1 0 1 0 0 0 1 0 0 1 1 0 1 1 1 1 0 0 0 1 1 1 0 0 1 1 
18 19 2 24 2 6 2 0 18 28 4 28 10 13 28 18 13 10 24 0 18 16 23 24 10 18 24 19 29 2 19 19 4 16 18 6 14 13 24 16 18 14 6 4 13 19 13 2 19 14 24 16 24 16 13 6 25 14 18 25 29 0 18 10 13 25 23 14 19 25 18 6 19 14 23 23 10 23 10 16 10 0 14 25 29 10 6 2 24 25 28 6 25 25 2 13 28 6 0 28 17 16 25 18 4 0 4 24 16 13 19 4 18 6 28 13 28 25 17 13 14 25 17 19 4 16 2 28 19 17 28 24 25 10 23 14 13 13 28 10 6 18 28 25 25 2 24 16 18 25 24 17 23 0 13 28 2 16 13 13 13 0 10 24 23 24 23 4 13 2 23 10 19 14 4 2 0 10 29 10 2 16 2 19 6 13 28 23 0 2 2 2 6 4 25 6 25 2 10 19 
